
Gurobi 9.0.1 (linux64) logging started Thu Apr 30 21:07:42 2020

Gurobi Optimizer version 9.0.1 build v9.0.1rc0 (linux64)
Optimize a model with 32222 rows, 27380 columns and 603960 nonzeros
Model fingerprint: 0xc4e10398
Variable types: 0 continuous, 27380 integer (27342 binary)
Coefficient statistics:
  Matrix range     [1e+00, 2e+01]
  Objective range  [2e+00, 1e+02]
  Bounds range     [1e+00, 1e+00]
  RHS range        [1e+00, 1e+00]

User MIP start produced solution with objective 1167 (0.88s)
Loaded user MIP start with objective 1167

Presolve removed 14186 rows and 9388 columns (presolve time = 5s) ...
Presolve removed 14228 rows and 9448 columns (presolve time = 10s) ...
Presolve removed 14228 rows and 9448 columns
Presolve time: 10.09s
Presolved: 17994 rows, 17932 columns, 501040 nonzeros
Variable types: 0 continuous, 17932 integer (17896 binary)

Root simplex log...

Iteration    Objective       Primal Inf.    Dual Inf.      Time
       0    0.0000000e+00   1.940000e+02   0.000000e+00     13s
    2193    5.4727169e+02   1.028642e+04   0.000000e+00     15s
    4268    5.5266026e+02   7.968616e+04   0.000000e+00     20s
    5596    5.5529017e+02   5.822988e+04   0.000000e+00     25s
    6841    5.5717717e+02   1.287620e+04   0.000000e+00     30s
    8003    5.6125832e+02   1.038952e+04   0.000000e+00     35s
    9331    5.6463682e+02   8.672803e+03   0.000000e+00     40s
   10410    5.6608534e+02   1.679027e+04   0.000000e+00     45s
   11323    5.6741741e+02   2.879263e+03   0.000000e+00     50s
   12236    5.6841960e+02   6.876981e+03   0.000000e+00     55s
   13066    5.6995133e+02   3.662488e+04   0.000000e+00     60s
   13896    5.7047992e+02   2.293961e+03   0.000000e+00     65s
   14726    5.7118894e+02   9.374581e+03   0.000000e+00     70s
   15722    5.7200319e+02   6.969910e+02   0.000000e+00     75s
   16552    5.7270207e+02   2.992633e+03   0.000000e+00     80s
   17548    5.7352606e+02   2.827253e+03   0.000000e+00     85s
   18561    5.7414763e+02   5.794596e+03   0.000000e+00     90s
   19474    5.7454513e+02   1.829647e+03   0.000000e+00     95s
   20304    5.7529070e+02   2.544643e+03   0.000000e+00    100s
   21300    5.7592472e+02   1.478999e+04   0.000000e+00    105s
   22213    5.7634709e+02   4.586896e+02   0.000000e+00    110s
   23095    5.7659516e+02   2.472026e+03   0.000000e+00    115s
   24044    5.7674701e+02   7.476493e+02   0.000000e+00    121s
   24957    5.7695601e+02   3.565605e+02   0.000000e+00    125s
   25808    5.7736271e+02   2.665266e+02   0.000000e+00    130s
   26721    5.7765132e+02   4.513104e+02   0.000000e+00    135s
   27806    5.7797667e+02   2.403812e+02   0.000000e+00    141s
   28671    5.7807678e+02   2.009424e+01   0.000000e+00    145s
   28965    5.7809892e+02   0.000000e+00   0.000000e+00    147s

Root relaxation: objective 5.780989e+02, 28965 iterations, 135.87 seconds

    Nodes    |    Current Node    |     Objective Bounds      |     Work
 Expl Unexpl |  Obj  Depth IntInf | Incumbent    BestBd   Gap | It/Node Time

     0     0  578.09892    0 2025 1167.00000  578.09892  50.5%     -  155s
     0     0  600.87064    0 2056 1167.00000  600.87064  48.5%     -  287s
     0     0  601.10225    0 2018 1167.00000  601.10225  48.5%     -  305s
     0     0  601.21645    0 1995 1167.00000  601.21645  48.5%     -  317s
     0     0  601.22152    0 1955 1167.00000  601.22152  48.5%     -  320s
     0     0  601.22152    0 1954 1167.00000  601.22152  48.5%     -  322s
     0     0  607.45763    0 2022 1167.00000  607.45763  47.9%     -  410s
     0     0  608.03082    0 2101 1167.00000  608.03082  47.9%     -  447s
     0     0  608.13615    0 2075 1167.00000  608.13615  47.9%     -  461s
     0     0  608.18139    0 2061 1167.00000  608.18139  47.9%     -  470s
     0     0  608.18590    0 2070 1167.00000  608.18590  47.9%     -  473s
     0     0  613.97839    0 2197 1167.00000  613.97839  47.4%     -  645s
     0     0  614.91035    0 2234 1167.00000  614.91035  47.3%     -  712s
     0     0  615.14719    0 2252 1167.00000  615.14719  47.3%     -  743s
     0     0  615.23343    0 2235 1167.00000  615.23343  47.3%     -  758s
     0     0  615.24278    0 2240 1167.00000  615.24278  47.3%     -  765s
     0     0  615.24333    0 2247 1167.00000  615.24333  47.3%     -  767s
     0     0  620.03927    0 2245 1167.00000  620.03927  46.9%     -  927s
     0     0  620.44200    0 2242 1167.00000  620.44200  46.8%     -  986s
     0     0  620.64091    0 2292 1167.00000  620.64091  46.8%     - 1013s
     0     0  620.68444    0 2262 1167.00000  620.68444  46.8%     - 1023s
     0     0  620.70192    0 2245 1167.00000  620.70192  46.8%     - 1031s
     0     0  620.70546    0 2257 1167.00000  620.70546  46.8%     - 1036s
     0     0  622.59725    0 2278 1167.00000  622.59725  46.6%     - 1111s
     0     0  622.88350    0 2282 1167.00000  622.88350  46.6%     - 1169s
     0     0  622.93515    0 2308 1167.00000  622.93515  46.6%     - 1184s
     0     0  622.94904    0 2279 1167.00000  622.94904  46.6%     - 1193s
     0     0  622.95889    0 2293 1167.00000  622.95889  46.6%     - 1199s
     0     0  623.68507    0 2327 1167.00000  623.68507  46.6%     - 1256s
     0     0  623.93121    0 2321 1167.00000  623.93121  46.5%     - 1311s
     0     0  623.96215    0 2308 1167.00000  623.96215  46.5%     - 1322s
     0     0  623.96730    0 2329 1167.00000  623.96730  46.5%     - 1327s
     0     0  624.77710    0 2343 1167.00000  624.77710  46.5%     - 1389s
     0     0  624.85168    0 2328 1167.00000  624.85168  46.5%     - 1408s
     0     0  624.86679    0 2332 1167.00000  624.86679  46.5%     - 1415s
     0     0  624.87471    0 2357 1167.00000  624.87471  46.5%     - 1422s
     0     0  625.16410    0 2277 1167.00000  625.16410  46.4%     - 1457s
     0     0  625.30652    0 2285 1167.00000  625.30652  46.4%     - 1484s
     0     0  625.37503    0 2319 1167.00000  625.37503  46.4%     - 1506s
     0     0  625.39960    0 2300 1167.00000  625.39960  46.4%     - 1517s
     0     0  625.41520    0 2327 1167.00000  625.41520  46.4%     - 1527s
     0     0  625.41910    0 2336 1167.00000  625.41910  46.4%     - 1532s
     0     0  625.93788    0 2318 1167.00000  625.93788  46.4%     - 1575s
     0     0  626.03821    0 2306 1167.00000  626.03821  46.4%     - 1603s
     0     0  626.05015    0 2335 1167.00000  626.05015  46.4%     - 1612s
     0     0  626.45898    0 2301 1167.00000  626.45898  46.3%     - 1657s
H    0     0                    1151.0000000  626.45898  45.6%     - 1693s
     0     0  626.60573    0 2331 1151.00000  626.60573  45.6%     - 1718s
     0     0  626.63708    0 2348 1151.00000  626.63708  45.6%     - 1728s
     0     0  626.64289    0 2354 1151.00000  626.64289  45.6%     - 1733s
     0     0  627.50641    0 2330 1151.00000  627.50641  45.5%     - 1819s
     0     0  627.61151    0 2302 1151.00000  627.61151  45.5%     - 1843s
     0     0  627.64536    0 2312 1151.00000  627.64536  45.5%     - 1857s
     0     0  627.65324    0 2315 1151.00000  627.65324  45.5%     - 1866s
     0     0  629.21582    0 2243 1151.00000  629.21582  45.3%     - 1946s
     0     0  629.38831    0 2263 1151.00000  629.38831  45.3%     - 1978s
     0     0  629.43336    0 2279 1151.00000  629.43336  45.3%     - 1992s
     0     0  629.46862    0 2269 1151.00000  629.46862  45.3%     - 2009s
     0     0  629.52430    0 2284 1151.00000  629.52430  45.3%     - 2028s
     0     0  629.53557    0 2273 1151.00000  629.53557  45.3%     - 2038s
     0     0  630.02397    0 2269 1151.00000  630.02397  45.3%     - 2083s
     0     0  630.11962    0 2292 1151.00000  630.11962  45.3%     - 2109s
     0     0  630.17061    0 2283 1151.00000  630.17061  45.3%     - 2124s
     0     0  630.17991    0 2304 1151.00000  630.17991  45.2%     - 2132s
     0     0  630.34277    0 2288 1151.00000  630.34277  45.2%     - 2161s
     0     0  630.39953    0 2324 1151.00000  630.39953  45.2%     - 2183s
     0     0  630.42630    0 2319 1151.00000  630.42630  45.2%     - 2196s
     0     0  630.43968    0 2326 1151.00000  630.43968  45.2%     - 2205s
     0     0  630.53943    0 2306 1151.00000  630.53943  45.2%     - 2229s
     0     0  630.58544    0 2326 1151.00000  630.58544  45.2%     - 2247s
     0     0  630.59422    0 2333 1151.00000  630.59422  45.2%     - 2254s
     0     0  631.02238    0 2339 1151.00000  631.02238  45.2%     - 2299s
     0     0  631.08041    0 2332 1151.00000  631.08041  45.2%     - 2317s
     0     0  631.08690    0 2355 1151.00000  631.08690  45.2%     - 2323s
     0     0  631.33743    0 2327 1151.00000  631.33743  45.1%     - 2361s
     0     0  631.38966    0 2342 1151.00000  631.38966  45.1%     - 2413s
     0     0  631.40408    0 2359 1151.00000  631.40408  45.1%     - 2423s
     0     0  631.55199    0 2363 1151.00000  631.55199  45.1%     - 2453s
     0     0  631.60947    0 2360 1151.00000  631.60947  45.1%     - 2476s
     0     0  631.62376    0 2395 1151.00000  631.62376  45.1%     - 2485s
     0     0  631.77132    0 2368 1151.00000  631.77132  45.1%     - 2517s
     0     0  631.79572    0 2366 1151.00000  631.79572  45.1%     - 2533s
     0     0  631.79929    0 2369 1151.00000  631.79929  45.1%     - 2540s
     0     0  631.90650    0 2385 1151.00000  631.90650  45.1%     - 2567s
     0     0  631.90650    0 2368 1151.00000  631.90650  45.1%     - 2589s
     0     2  631.91035    0 2367 1151.00000  631.91035  45.1%     - 3037s
     1     3  634.15986    1 2308 1151.00000  631.91035  45.1% 18847 3199s
     2     4  635.56249    1 2090 1151.00000  634.16015  44.9% 22208 3412s
     3     5  634.61861    2 2310 1151.00000  634.16229  44.9% 16420 3453s

Cutting planes:
  Cover: 2
  MIR: 119
  StrongCG: 20
  GUB cover: 2
  Zero half: 72
  RLT: 843

Explored 4 nodes (322405 simplex iterations) in 3600.03 seconds
Thread count was 1 (of 40 available processors)

Solution count 2: 1151 1167 

Time limit reached
Best objective 1.151000000000e+03, best bound 6.350000000000e+02, gap 44.8306%

User-callback calls 49922, time in user-callback 0.15 sec
